; DUP1 SLOAD PUSH cw_3 DUP1 SWAP2 => PUSH cw_3 PUSH cw_3 DUP3 SLOAD
(set-option :produce-proofs true)
; 
(set-info :status unknown)
(declare-fun storage_t ((_ BitVec 256) (_ BitVec 256) (_ BitVec 256) Int (_ BitVec 256)) (_ BitVec 256))
(declare-fun w_3 () (_ BitVec 256))
(declare-fun storage_s ((_ BitVec 256) (_ BitVec 256) (_ BitVec 256) Int (_ BitVec 256)) (_ BitVec 256))
(declare-fun exc_halt_t (Int) Bool)
(declare-fun exc_halt_s (Int) Bool)
(declare-fun sc_t (Int) (_ BitVec 6))
(declare-fun stack_t ((_ BitVec 256) (_ BitVec 256) (_ BitVec 256) Int (_ BitVec 6)) (_ BitVec 256))
(declare-fun stack_s ((_ BitVec 256) (_ BitVec 256) (_ BitVec 256) Int (_ BitVec 6)) (_ BitVec 256))
(declare-fun sc_s (Int) (_ BitVec 6))
(declare-fun used_gas_t ((_ BitVec 256) (_ BitVec 256) (_ BitVec 256) Int) Int)
(declare-fun used_gas_s ((_ BitVec 256) (_ BitVec 256) (_ BitVec 256) Int) Int)
(assert
 (exists ((x_0 (_ BitVec 256)) (x_SLOAD_0 (_ BitVec 256)) )(let (($x1726 (forall ((w (_ BitVec 256)) )(let ((?x9293 (storage_t x_0 x_SLOAD_0 w_3 4 w)))
 (let ((?x3297 (storage_s x_0 x_SLOAD_0 w_3 5 w)))
 (= ?x3297 ?x9293))))
 ))
 (let (($x566 (exc_halt_t 4)))
 (let (($x3979 (exc_halt_s 5)))
 (let (($x10168 (= $x3979 $x566)))
 (let (($x8809 (forall ((n (_ BitVec 6)) )(let ((?x518 (sc_t 4)))
 (let (($x9265 (bvsle ?x518 n)))
 (let ((?x8957 (stack_t x_0 x_SLOAD_0 w_3 4 n)))
 (let ((?x9323 (stack_s x_0 x_SLOAD_0 w_3 5 n)))
 (let (($x8501 (= ?x9323 ?x8957)))
 (or $x8501 $x9265)))))))
 ))
 (let ((?x518 (sc_t 4)))
 (let ((?x805 (sc_s 5)))
 (let (($x5034 (= ?x805 ?x518)))
 (let ((?x9304 (used_gas_t x_0 x_SLOAD_0 w_3 0)))
 (let ((?x9290 (used_gas_s x_0 x_SLOAD_0 w_3 0)))
 (let (($x9292 (= ?x9290 ?x9304)))
 (let (($x8960 (forall ((w (_ BitVec 256)) )(let ((?x9272 (storage_t x_0 x_SLOAD_0 w_3 0 w)))
 (let ((?x8918 (storage_s x_0 x_SLOAD_0 w_3 0 w)))
 (= ?x8918 ?x9272))))
 ))
 (let (($x56 (exc_halt_t 0)))
 (let (($x57 (exc_halt_s 0)))
 (let (($x58 (= $x57 $x56)))
 (let (($x3104 (forall ((n (_ BitVec 6)) )(let ((?x2502 (stack_t x_0 x_SLOAD_0 w_3 0 n)))
 (let ((?x7693 (stack_s x_0 x_SLOAD_0 w_3 0 n)))
 (let (($x8952 (= ?x7693 ?x2502)))
 (let ((?x63 (sc_t 0)))
 (let (($x7609 (bvsle ?x63 n)))
 (or $x7609 $x8952)))))))
 ))
 (let ((?x63 (sc_t 0)))
 (let ((?x72 (sc_s 0)))
 (let (($x73 (= ?x72 ?x63)))
 (let (($x10040 (= $x566 (or (exc_halt_t 3) (not (bvsle (_ bv0 6) (bvadd (_ bv63 6) (sc_t 3))))))))
 (let (($x8860 (forall ((w (_ BitVec 256)) )(let ((?x7190 (storage_t x_0 x_SLOAD_0 w_3 3 w)))
 (let ((?x9293 (storage_t x_0 x_SLOAD_0 w_3 4 w)))
 (= ?x9293 ?x7190))))
 ))
 (let (($x478 (forall ((n (_ BitVec 6)) )(let ((?x2012 (sc_t 3)))
 (let ((?x9681 (bvadd (_ bv63 6) ?x2012)))
 (let (($x9585 (bvsle ?x9681 n)))
 (let ((?x8971 (stack_t x_0 x_SLOAD_0 w_3 3 n)))
 (let ((?x8957 (stack_t x_0 x_SLOAD_0 w_3 4 n)))
 (or (= ?x8957 ?x8971) $x9585)))))))
 ))
 (let (($x2193 (= (used_gas_t x_0 x_SLOAD_0 w_3 4) (+ 200 (used_gas_t x_0 x_SLOAD_0 w_3 3)))))
 (let ((?x2012 (sc_t 3)))
 (let ((?x9681 (bvadd (_ bv63 6) ?x2012)))
 (let ((?x2961 (stack_t x_0 x_SLOAD_0 w_3 3 ?x9681)))
 (let (($x2172 (= (stack_t x_0 x_SLOAD_0 w_3 4 (bvadd (_ bv63 6) ?x518)) (storage_t x_0 x_SLOAD_0 w_3 3 ?x2961))))
 (let (($x903 (exc_halt_t 2)))
 (let (($x2160 (or $x903 (not (bvsle (_ bv0 6) (bvadd (_ bv61 6) (sc_t 2)))) (not (= ((_ extract 6 6) (bvadd (_ bv1 7) (concat (_ bv0 1) (sc_t 2)))) (_ bv0 1))))))
 (let (($x10336 (exc_halt_t 3)))
 (let (($x7882 (forall ((w (_ BitVec 256)) )(let ((?x965 (storage_t x_0 x_SLOAD_0 w_3 2 w)))
 (let ((?x7190 (storage_t x_0 x_SLOAD_0 w_3 3 w)))
 (= ?x7190 ?x965))))
 ))
 (let (($x7758 (forall ((n (_ BitVec 6)) )(let ((?x8993 (stack_t x_0 x_SLOAD_0 w_3 2 n)))
 (let ((?x8971 (stack_t x_0 x_SLOAD_0 w_3 3 n)))
 (or (= ?x8971 ?x8993) (bvsle (bvadd (_ bv61 6) (sc_t 2)) n)))))
 ))
 (let ((?x8988 (used_gas_t x_0 x_SLOAD_0 w_3 3)))
 (let (($x2836 (= (stack_t x_0 x_SLOAD_0 w_3 3 (bvadd (_ bv63 6) (sc_t 2))) (stack_t x_0 x_SLOAD_0 w_3 2 (bvadd (_ bv63 6) (sc_t 2))))))
 (let (($x8837 (= (stack_t x_0 x_SLOAD_0 w_3 3 (bvadd (_ bv62 6) (sc_t 2))) (stack_t x_0 x_SLOAD_0 w_3 2 (bvadd (_ bv62 6) (sc_t 2))))))
 (let ((?x4056 (sc_t 2)))
 (let ((?x3941 (bvadd (_ bv61 6) ?x4056)))
 (let ((?x2960 (stack_t x_0 x_SLOAD_0 w_3 2 ?x3941)))
 (let (($x1920 (exc_halt_t 1)))
 (let (($x2329 (or $x1920 (not (= ((_ extract 6 6) (bvadd (_ bv1 7) (concat (_ bv0 1) (sc_t 1)))) (_ bv0 1))))))
 (let (($x7955 (forall ((w (_ BitVec 256)) )(let ((?x9016 (storage_t x_0 x_SLOAD_0 w_3 1 w)))
 (let ((?x965 (storage_t x_0 x_SLOAD_0 w_3 2 w)))
 (= ?x965 ?x9016))))
 ))
 (let (($x7954 (forall ((n (_ BitVec 6)) )(let ((?x9036 (stack_t x_0 x_SLOAD_0 w_3 1 n)))
 (let ((?x8993 (stack_t x_0 x_SLOAD_0 w_3 2 n)))
 (or (bvsle (sc_t 1) n) (= ?x8993 ?x9036)))))
 ))
 (let ((?x1052 (used_gas_t x_0 x_SLOAD_0 w_3 2)))
 (let (($x8349 (= $x1920 (or $x56 (not (= ((_ extract 6 6) (bvadd (_ bv1 7) (concat (_ bv0 1) ?x63))) (_ bv0 1)))))))
 (let (($x7760 (forall ((w (_ BitVec 256)) )(let ((?x9272 (storage_t x_0 x_SLOAD_0 w_3 0 w)))
 (let ((?x9016 (storage_t x_0 x_SLOAD_0 w_3 1 w)))
 (= ?x9016 ?x9272))))
 ))
 (let (($x7847 (forall ((n (_ BitVec 6)) )(let ((?x63 (sc_t 0)))
 (let (($x7609 (bvsle ?x63 n)))
 (let ((?x2502 (stack_t x_0 x_SLOAD_0 w_3 0 n)))
 (let ((?x9036 (stack_t x_0 x_SLOAD_0 w_3 1 n)))
 (or (= ?x9036 ?x2502) $x7609))))))
 ))
 (let (($x8855 (= $x3979 (or (exc_halt_s 4) (not (bvsle (_ bv0 6) (bvadd (_ bv61 6) (sc_s 4))))))))
 (let (($x8685 (forall ((w (_ BitVec 256)) )(let ((?x3810 (storage_s x_0 x_SLOAD_0 w_3 4 w)))
 (let ((?x3297 (storage_s x_0 x_SLOAD_0 w_3 5 w)))
 (= ?x3297 ?x3810))))
 ))
 (let (($x8805 (forall ((n (_ BitVec 6)) )(let ((?x9135 (stack_s x_0 x_SLOAD_0 w_3 4 n)))
 (let ((?x9323 (stack_s x_0 x_SLOAD_0 w_3 5 n)))
 (or (bvsle (bvadd (_ bv61 6) (sc_s 4)) n) (= ?x9323 ?x9135)))))
 ))
 (let (($x8851 (= (used_gas_s x_0 x_SLOAD_0 w_3 5) (+ 3 (used_gas_s x_0 x_SLOAD_0 w_3 4)))))
 (let (($x8852 (= (stack_s x_0 x_SLOAD_0 w_3 5 (bvadd (_ bv62 6) ?x805)) (stack_s x_0 x_SLOAD_0 w_3 4 (bvadd (_ bv62 6) (sc_s 4))))))
 (let ((?x4305 (sc_s 4)))
 (let ((?x9580 (bvadd (_ bv63 6) ?x4305)))
 (let ((?x8917 (stack_s x_0 x_SLOAD_0 w_3 4 ?x9580)))
 (let (($x8726 (= (stack_s x_0 x_SLOAD_0 w_3 5 (bvadd (_ bv63 6) ?x805)) (stack_s x_0 x_SLOAD_0 w_3 4 (bvadd (_ bv61 6) ?x4305)))))
 (let (($x292 (exc_halt_s 3)))
 (let (($x1708 (or $x292 (not (= ((_ extract 6 6) (bvadd (_ bv1 7) (concat (_ bv0 1) (sc_s 3)))) (_ bv0 1))) (not (bvsle (_ bv0 6) (bvadd (_ bv63 6) (sc_s 3)))))))
 (let (($x64 (exc_halt_s 4)))
 (let (($x8925 (forall ((w (_ BitVec 256)) )(let ((?x9162 (storage_s x_0 x_SLOAD_0 w_3 3 w)))
 (let ((?x3810 (storage_s x_0 x_SLOAD_0 w_3 4 w)))
 (= ?x3810 ?x9162))))
 ))
 (let (($x8924 (forall ((n (_ BitVec 6)) )(let ((?x3024 (stack_s x_0 x_SLOAD_0 w_3 3 n)))
 (let ((?x9135 (stack_s x_0 x_SLOAD_0 w_3 4 n)))
 (or (= ?x9135 ?x3024) (bvsle (bvadd (_ bv63 6) (sc_s 3)) n)))))
 ))
 (let ((?x8793 (used_gas_s x_0 x_SLOAD_0 w_3 4)))
 (let ((?x275 (sc_s 3)))
 (let ((?x9399 (bvadd (_ bv63 6) ?x275)))
 (let ((?x8913 (stack_s x_0 x_SLOAD_0 w_3 3 ?x9399)))
 (let (($x247 (exc_halt_s 2)))
 (let (($x494 (or $x247 (not (= ((_ extract 6 6) (bvadd (_ bv1 7) (concat (_ bv0 1) (sc_s 2)))) (_ bv0 1))))))
 (let (($x7387 (forall ((w (_ BitVec 256)) )(let ((?x8559 (storage_s x_0 x_SLOAD_0 w_3 2 w)))
 (let ((?x9162 (storage_s x_0 x_SLOAD_0 w_3 3 w)))
 (= ?x9162 ?x8559))))
 ))
 (let (($x2148 (forall ((n (_ BitVec 6)) )(let ((?x8557 (stack_s x_0 x_SLOAD_0 w_3 2 n)))
 (let ((?x3024 (stack_s x_0 x_SLOAD_0 w_3 3 n)))
 (or (= ?x3024 ?x8557) (bvsle (sc_s 2) n)))))
 ))
 (let ((?x3618 (used_gas_s x_0 x_SLOAD_0 w_3 3)))
 (let (($x3038 (= $x247 (or (exc_halt_s 1) (not (bvsle (_ bv0 6) (bvadd (_ bv63 6) (sc_s 1))))))))
 (let (($x3071 (forall ((w (_ BitVec 256)) )(let ((?x9231 (storage_s x_0 x_SLOAD_0 w_3 1 w)))
 (let ((?x8559 (storage_s x_0 x_SLOAD_0 w_3 2 w)))
 (= ?x8559 ?x9231))))
 ))
 (let (($x9063 (forall ((n (_ BitVec 6)) )(let ((?x7774 (stack_s x_0 x_SLOAD_0 w_3 1 n)))
 (let ((?x8557 (stack_s x_0 x_SLOAD_0 w_3 2 n)))
 (or (= ?x8557 ?x7774) (bvsle (bvadd (_ bv63 6) (sc_s 1)) n)))))
 ))
 (let ((?x154 (sc_s 1)))
 (let ((?x218 (sc_s 2)))
 (let (($x9614 (= ?x218 ?x154)))
 (let ((?x2153 (used_gas_s x_0 x_SLOAD_0 w_3 2)))
 (let ((?x9649 (bvadd (_ bv63 6) ?x154)))
 (let ((?x8796 (stack_s x_0 x_SLOAD_0 w_3 1 ?x9649)))
 (let (($x8887 (= (stack_s x_0 x_SLOAD_0 w_3 2 (bvadd (_ bv63 6) ?x218)) (storage_s x_0 x_SLOAD_0 w_3 1 ?x8796))))
 (let (($x2283 (or $x57 (not (= ((_ extract 6 6) (bvadd (_ bv1 7) (concat (_ bv0 1) ?x72))) (_ bv0 1))) (not (bvsle (_ bv0 6) (bvadd (_ bv63 6) ?x72))))))
 (let (($x189 (exc_halt_s 1)))
 (let (($x3553 (forall ((w (_ BitVec 256)) )(let ((?x8918 (storage_s x_0 x_SLOAD_0 w_3 0 w)))
 (let ((?x9231 (storage_s x_0 x_SLOAD_0 w_3 1 w)))
 (= ?x9231 ?x8918))))
 ))
 (let (($x2384 (forall ((n (_ BitVec 6)) )(let ((?x7693 (stack_s x_0 x_SLOAD_0 w_3 0 n)))
 (let ((?x7774 (stack_s x_0 x_SLOAD_0 w_3 1 n)))
 (or (= ?x7774 ?x7693) (bvsle (bvadd (_ bv63 6) (sc_s 0)) n)))))
 ))
 (let ((?x9642 (bvadd (_ bv63 6) ?x72)))
 (let ((?x9045 (stack_s x_0 x_SLOAD_0 w_3 0 ?x9642)))
 (let (($x670 (forall ((w (_ BitVec 256)) )(let ((?x8679 (ite (= w (stack_s x_0 x_SLOAD_0 w_3 1 (bvadd (_ bv63 6) (sc_s 1)))) x_SLOAD_0 (_ bv0 256))))
 (let ((?x8918 (storage_s x_0 x_SLOAD_0 w_3 0 w)))
 (= ?x8918 ?x8679))))
 ))
 (let (($x9213 (= ?x9290 0)))
 (let (($x5028 (not $x57)))
 (let (($x9180 (= (stack_s x_0 x_SLOAD_0 w_3 0 (_ bv0 6)) x_0)))
 (let (($x2911 (= ?x72 (_ bv1 6))))
 (and $x2911 $x9180 $x5028 $x9213 $x670 (= ?x8796 ?x9045) (= (stack_s x_0 x_SLOAD_0 w_3 1 ?x9642) ?x9045) (= (used_gas_s x_0 x_SLOAD_0 w_3 1) (+ 3 ?x9290)) (= ?x154 (bvadd (_ bv1 6) ?x72)) $x2384 $x3553 (= $x189 $x2283) $x8887 (= ?x2153 (+ 200 (used_gas_s x_0 x_SLOAD_0 w_3 1))) $x9614 $x9063 $x3071 $x3038 (= (stack_s x_0 x_SLOAD_0 w_3 3 ?x218) w_3) (= ?x3618 (+ 3 ?x2153)) (= ?x275 (bvadd (_ bv1 6) ?x218)) $x2148 $x7387 (= $x292 $x494) (= ?x8917 ?x8913) (= (stack_s x_0 x_SLOAD_0 w_3 4 ?x9399) ?x8913) (= ?x8793 (+ 3 ?x3618)) (= ?x4305 (bvadd (_ bv1 6) ?x275)) $x8924 $x8925 (= $x64 $x1708) $x8726 (= (stack_s x_0 x_SLOAD_0 w_3 5 (bvadd (_ bv61 6) ?x805)) ?x8917) $x8852 $x8851 (= ?x805 ?x4305) $x8805 $x8685 $x8855 (= (stack_t x_0 x_SLOAD_0 w_3 1 ?x63) w_3) (= (used_gas_t x_0 x_SLOAD_0 w_3 1) (+ 3 ?x9304)) (= (sc_t 1) (bvadd (_ bv1 6) ?x63)) $x7847 $x7760 $x8349 (= (stack_t x_0 x_SLOAD_0 w_3 2 (sc_t 1)) w_3) (= ?x1052 (+ 3 (used_gas_t x_0 x_SLOAD_0 w_3 1))) (= ?x4056 (bvadd (_ bv1 6) (sc_t 1))) $x7954 $x7955 (= $x903 $x2329) (= ?x2961 ?x2960) (= (stack_t x_0 x_SLOAD_0 w_3 3 ?x3941) ?x2960) $x8837 $x2836 (= ?x8988 (+ 3 ?x1052)) (= ?x2012 (bvadd (_ bv1 6) ?x4056)) $x7758 $x7882 (= $x10336 $x2160) $x2172 $x2193 (= ?x518 ?x2012) $x478 $x8860 $x10040 $x73 $x3104 $x58 $x8960 $x9292 (not (and $x5034 $x8809 $x10168 $x1726))))))))))))))))))))))))))))))))))))))))))))))))))))))))))))))))))))))))))))))))))))))))))))))
 )
(check-sat)
(get-proof)
